227175
227175
227175
227175
227175
222540
222540
222540
222540
222540
222540
222540
222540
221031
221031
221031
218589
216260
213252
213252
213252
212080
212080
212080
212080
212080
212080
212080
212080
212080
212080
212080
211810
209779
209779
209779
209779
208564
208564
208564
208564
208564
208564
208564
208564
208564
208564
208398
208398
208398
208398
208398
208398
208035
208032
208032
205650
205650
204069
204069
204069
204069
204069
204069
204069
204069
204069
204069
203890
202891
202891
202891
202891
202891
202891
202677
202483
202483
202483
202483
202483
202091
202091
202091
202091
202091
201612
201612
200828
200828
200828
200096
200096
199741
199741
199273
199273
198644
198644
198644
